(set-option :print-success false)
(set-logic QF_UF)
(declare-sort x66 0)
(declare-sort x104 0)
(declare-fun x31 (x104 x104) x104)
(declare-fun x134 () x104)
(declare-fun x71 () x104)
(declare-fun x152 () x104)
(declare-fun x64 () x104)
(declare-fun x12 () x104)
(declare-fun x25 (x104 x104) x104)
(assert (not (and (= (x25 x71 x71) x64) (and (= (x25 x71 x134) x12) (and (= (x25 x71 x152) x152) (and (and (and (and (and (= (x25 x134 x152) x71) (and (= x152 (x25 x134 x12)) (and (= x64 (x25 x134 x64)) (and (and (= x152 (x25 x152 x134)) (and (and (and (and (= (x25 x12 x71) x152) (and (= (x25 x12 x134) x64) (and (and (= x71 (x25 x12 x12)) (and (= x134 (x25 x12 x64)) (and (= x134 (x25 x64 x71)) (and (and (and (= (x25 x64 x64) x152) (= (x25 x64 x12) x12)) (= (x25 x64 x152) x64)) (= x71 (x25 x64 x134)))))) (= x12 (x25 x12 x152))))) (= x12 (x25 x152 x64))) (= (x25 x152 x12) x64)) (= (x25 x152 x152) x134))) (= x71 (x25 x152 x71)))))) (= x134 (x25 x134 x134))) (= x12 (x25 x134 x71))) (= x71 (x25 x71 x64))) (= (x25 x71 x12) x134)))))))
(assert (let ((x158 (x25 x64 x12)) (x82 (x25 x71 x152)) (x106 (x25 x12 x152)) (x130 (x25 x12 x64)) (x137 (x25 x12 x12)) (x50 (x25 x64 x152)) (x55 (x25 x152 x12)) (x83 (x25 x134 x71)) (x100 (x25 x134 x64)) (x42 (x25 x134 x12)) (x94 (x25 x71 x71)) (x127 (x25 x152 x152)) (x89 (x25 x152 x71)) (x6 (x25 x12 x71)) (x72 (x25 x71 x12)) (x131 (x25 x64 x64)) (x18 (x25 x71 x134)) (x74 (x25 x64 x134)) (x141 (x25 x152 x134)) (x70 (x25 x12 x134)) (x144 (x25 x71 x64)) (x80 (x25 x134 x152)) (x81 (x25 x152 x64)) (x142 (x25 x64 x71)) (x138 (x25 x134 x134))) (let ((x33 (= x12 x18)) (x87 (= x152 x127)) (x52 (= x137 x134)) (x1 (= x141 x64)) (x97 (= x64 x142)) (x114 (= x64 x50)) (x145 (= x12 x127)) (x39 (= x64 x82)) (x132 (= x144 x134)) (x136 (= x12 x81)) (x126 (= x64 x81)) (x53 (= x131 x71)) (x56 (= x82 x152)) (x153 (= x131 x152)) (x99 (= x130 x134)) (x4 (= x42 x152)) (x2 (= x71 x74)) (x46 (= x134 x42)) (x10 (= x80 x64)) (x88 (= x89 x12)) (x156 (= x50 x71)) (x93 (= x152 x72)) (x54 (= x74 x12)) (x85 (= x152 x18)) (x108 (= x70 x71)) (x147 (= x142 x12)) (x59 (= x137 x12)) (x20 (= x131 x134)) (x122 (= x64 x127)) (x15 (= x141 x71)) (x38 (= x134 x127)) (x125 (= x80 x12)) (x110 (= x134 x100)) (x57 (= x158 x152)) (x73 (= x138 x71)) (x24 (= x71 x72)) (x75 (= x83 x64)) (x23 (= x137 x152)) (x115 (= x72 x64)) (x3 (= x152 x142)) (x19 (= x141 x12)) (x16 (= x12 x50)) (x14 (= x64 x74)) (x11 (= x89 x64)) (x105 (= x141 x152)) (x154 (= x64 x42)) (x8 (= x74 x134)) (x40 (= x100 x64)) (x9 (= x134 x50)) (x133 (= x71 x106)) (x112 (= x83 x12)) (x146 (= x71 x144)) (x116 (= x42 x12)) (x29 (= x100 x71)) (x119 (= x6 x64)) (x78 (= x64 x70)) (x150 (= x138 x152)) (x77 (= x131 x64)) (x22 (= x71 x18)) (x69 (= x64 x138)) (x139 (= x89 x134)) (x90 (= x64 x55)) (x41 (= x71 x158)) (x109 (= x134 x106)) (x27 (= x94 x64)) (x58 (= x134 x6)) (x37 (= x71 x42)) (x36 (= x12 x72)) (x129 (= x12 x82)) (x98 (= x64 x130)) (x68 (= x152 x70)) (x120 (= x18 x64)) (x91 (= x152 x144)) (x124 (= x134 x70)) (x95 (= x71 x80)) (x101 (= x152 x74)) (x45 (= x158 x12)) (x140 (= x55 x134)) (x113 (= x71 x6)) (x26 (= x106 x64)) (x34 (= x81 x71)) (x67 (= x71 x130)) (x28 (= x80 x134)) (x7 (= x12 x138)) (x86 (= x152 x89)) (x107 (= x71 x82)) (x111 (= x134 x141)) (x143 (= x64 x144)) (x17 (= x106 x12)) (x49 (= x83 x71)) (x5 (= x55 x71)) (x76 (= x83 x152)) (x21 (= x83 x134)) (x159 (= x134 x142)) (x135 (= x134 x158)) (x43 (= x94 x152)) (x117 (= x134 x81)) (x44 (= x80 x152)) (x103 (= x81 x152)) (x48 (= x100 x152)) (x47 (= x12 x130)) (x60 (= x12 x70)) (x149 (= x55 x152)) (x123 (= x71 x142)) (x61 (= x64 x158)) (x157 (= x94 x12)) (x151 (= x50 x152)) (x30 (= x55 x12)) (x84 (= x137 x64)) (x51 (= x12 x100)) (x155 (= x72 x134)) (x92 (= x71 x127)) (x102 (= x152 x6)) (x118 (= x134 x138)) (x35 (= x134 x94)) (x63 (= x12 x144)) (x121 (= x106 x152)) (x79 (= x137 x71)) (x128 (= x89 x71)) (x13 (= x6 x12)) (x32 (= x12 x131)) (x65 (= x134 x82)) (x62 (= x18 x134)) (x148 (= x130 x152)) (x96 (= x71 x94))) (and (and (and (or (or (or (and (not x85) x76) (or (and x150 (not x150)) (or (and x44 (not x105)) (or (and x48 (not x101)) (and (not x68) x4))))) (or (or (or (or (or (or (and x23 (not x23)) (and (not x57) x148)) (and (not x149) x121)) (and x68 (not x4))) (and x102 (not x93))) (or (and x3 (not x91)) (or (and (not x48) x101) (or (or (and (not x148) x57) (and (not x153) x153)) (and (not x103) x151))))) (or (and (not x56) x86) (or (and (not x44) x105) (or (and x87 (not x87)) (or (and x149 (not x121)) (and (not x151) x103))))))) (or (or (or (or (and (not x3) x91) (and x93 (not x102))) (and x56 (not x86))) (and (not x76) x85)) (and (not x43) x43))) (and (or (or (or (and (not x75) x120) (or (and (not x11) x39) (or (and (not x97) x143) (and (not x119) x115)))) (and (not x27) x27)) (or (or (or (and x69 (not x69)) (or (and x10 (not x1)) (or (and (not x78) x154) (and (not x14) x40)))) (and (not x120) x75)) (or (or (or (and (not x10) x1) (or (and x122 (not x122)) (or (and x90 (not x26)) (and (not x114) x126)))) (and x11 (not x39))) (or (or (or (and (not x40) x14) (or (or (and x77 (not x77)) (and x61 (not x98))) (and (not x126) x114))) (and x97 (not x143))) (or (or (or (or (and (not x84) x84) (and (not x61) x98)) (and x26 (not x90))) (and (not x154) x78)) (and (not x115) x119)))))) (or (or (or (or (or (or (or (or (and x59 (not x59)) (and (not x45) x47)) (and x17 (not x30))) (and (not x116) x60)) (and x13 (not x36))) (or (or (or (or (and (not x32) x32) (and (not x47) x45)) (and (not x136) x16)) (and (not x51) x54)) (and x147 (not x63)))) (or (or (and x19 (not x125)) (or (and x145 (not x145)) (or (and x136 (not x16)) (and x30 (not x17))))) (and (not x129) x88))) (or (or (or (or (and (not x54) x51) (and (not x60) x116)) (and x125 (not x19))) (and x7 (not x7))) (and x112 (not x33)))) (or (and (not x157) x157) (or (and x33 (not x112)) (or (and x129 (not x88)) (or (and (not x13) x36) (and (not x147) x63)))))))) (or (or (or (or (or (and (not x159) x132) (and x155 (not x58))) (and (not x139) x65)) (and x62 (not x21))) (and x35 (not x35))) (or (or (or (or (or (and (not x38) x38) (or (and x140 (not x109)) (and (not x9) x117))) (and x111 (not x28))) (and x139 (not x65))) (or (or (and x159 (not x132)) (or (and (not x110) x8) (or (and x9 (not x117)) (or (and (not x20) x20) (and x135 (not x99)))))) (or (and x58 (not x155)) (or (and x124 (not x46)) (or (or (and (not x52) x52) (and x99 (not x135))) (and (not x140) x109)))))) (or (or (and (not x118) x118) (or (and x28 (not x111)) (or (and x110 (not x8)) (and x46 (not x124))))) (and x21 (not x62)))))) (or (or (or (or (or (or (or (and x156 (not x34)) (or (and (not x53) x53) (and (not x67) x41))) (and (not x29) x2)) (and (not x146) x123)) (or (or (or (and x133 (not x5)) (or (and (not x41) x67) (and x79 (not x79)))) (and x108 (not x37))) (and x113 (not x24)))) (or (and (not x107) x128) (or (or (or (and (not x133) x5) (and (not x156) x34)) (and (not x92) x92)) (and x15 (not x95))))) (or (or (or (and (not x15) x95) (or (and (not x108) x37) (and (not x2) x29))) (and (not x73) x73)) (and (not x22) x49))) (or (and (not x96) x96) (or (or (and x107 (not x128)) (or (and x24 (not x113)) (and x146 (not x123)))) (and (not x49) x22))))))))
(assert (let ((x77 (x25 x64 x64)) (x10 (x25 x134 x152)) (x122 (x25 x152 x152)) (x27 (x25 x71 x71)) (x154 (x25 x134 x12)) (x78 (x25 x12 x134)) (x84 (x25 x12 x12)) (x98 (x25 x12 x64)) (x1 (x25 x152 x134)) (x126 (x25 x152 x64)) (x69 (x25 x134 x134)) (x97 (x25 x64 x71)) (x90 (x25 x152 x12)) (x75 (x25 x134 x71)) (x40 (x25 x134 x64)) (x115 (x25 x71 x12)) (x120 (x25 x71 x134)) (x14 (x25 x64 x134)) (x61 (x25 x64 x12)) (x26 (x25 x12 x152)) (x119 (x25 x12 x71)) (x143 (x25 x71 x64)) (x11 (x25 x152 x71)) (x39 (x25 x71 x152)) (x114 (x25 x64 x152))) (and (and (and (or (or (or (not (= x122 x122)) (or (not (= x114 x126)) (not (= x90 x26)))) (not (= x1 x10))) (not (= x39 x11))) (and (or (not (= x143 x97)) (or (not (= x14 x40)) (or (or (not (= x77 x77)) (not (= x98 x61))) (not (= x114 x126))))) (or (or (not (= x78 x154)) (or (or (not (= x84 x84)) (not (= x98 x61))) (not (= x26 x90)))) (not (= x115 x119))))) (or (or (or (or (not (= x14 x40)) (not (= x154 x78))) (not (= x10 x1))) (not (= x69 x69))) (not (= x120 x75)))) (or (not (= x27 x27)) (or (or (not (= x39 x11)) (or (not (= x119 x115)) (not (= x143 x97)))) (not (= x120 x75)))))))
(assert (let ((x84 (x25 x134 x134)) (x126 (x25 x71 x71)) (x61 (x25 x152 x152)) (x98 (x25 x12 x12)) (x77 (x25 x64 x64))) (or (and (not (= x71 x126)) (and (not (= x84 x71)) (and (and (not (= x77 x71)) (not (= x71 x98))) (not (= x71 x61))))) (or (or (and (not (= x152 x126)) (and (and (and (not (= x152 x77)) (not (= x98 x152))) (not (= x152 x61))) (not (= x152 x84)))) (or (and (not (= x126 x12)) (and (and (not (= x61 x12)) (and (not (= x98 x12)) (not (= x12 x77)))) (not (= x84 x12)))) (and (and (and (not (= x64 x61)) (and (not (= x64 x77)) (not (= x98 x64)))) (not (= x84 x64))) (not (= x64 x126))))) (and (not (= x134 x126)) (and (not (= x84 x134)) (and (not (= x134 x61)) (and (not (= x77 x134)) (not (= x134 x98))))))))))
(assert (let ((x154 (x25 x152 x12)) (x97 (x25 x134 x152)) (x26 (x25 x12 x152)) (x143 (x25 x134 x12)) (x119 (x25 x134 x71)) (x126 (x25 x64 x71)) (x40 (x25 x12 x71)) (x78 (x25 x152 x152)) (x39 (x25 x71 x64)) (x14 (x25 x152 x64)) (x84 (x25 x64 x134)) (x10 (x25 x152 x134)) (x115 (x25 x134 x134)) (x11 (x25 x71 x12)) (x69 (x25 x134 x64)) (x75 (x25 x71 x134)) (x1 (x25 x152 x71)) (x77 (x25 x64 x64)) (x114 (x25 x12 x64)) (x122 (x25 x12 x134)) (x120 (x25 x71 x152)) (x61 (x25 x64 x152)) (x90 (x25 x12 x12)) (x98 (x25 x64 x12)) (x27 (x25 x71 x71))) (and (and (and (and (and (and (and (and (or (or (or (= x77 x152) (or (= x77 x12) (= x77 x64))) (= x134 x77)) (= x77 x71)) (or (= x98 x71) (or (= x134 x98) (or (= x98 x152) (or (= x98 x64) (= x12 x98)))))) (or (or (or (= x61 x152) (or (= x61 x12) (= x64 x61))) (= x134 x61)) (= x71 x61))) (or (or (or (= x152 x84) (or (= x84 x64) (= x84 x12))) (= x84 x134)) (= x84 x71))) (or (= x126 x71) (or (or (= x152 x126) (or (= x12 x126) (= x64 x126))) (= x126 x134)))) (and (or (= x40 x71) (or (= x134 x40) (or (or (= x40 x12) (= x40 x64)) (= x152 x40)))) (and (and (or (or (= x134 x26) (or (= x152 x26) (or (= x26 x12) (= x64 x26)))) (= x71 x26)) (and (or (= x71 x90) (or (= x134 x90) (or (= x152 x90) (or (= x90 x64) (= x90 x12))))) (or (= x114 x71) (or (= x114 x134) (or (= x114 x152) (or (= x114 x64) (= x12 x114))))))) (or (or (= x134 x122) (or (= x152 x122) (or (= x12 x122) (= x64 x122)))) (= x122 x71))))) (and (or (or (or (= x152 x1) (or (= x64 x1) (= x1 x12))) (= x1 x134)) (= x71 x1)) (and (or (= x10 x71) (or (= x134 x10) (or (= x10 x152) (or (= x12 x10) (= x64 x10))))) (and (or (or (= x134 x78) (or (or (= x78 x12) (= x64 x78)) (= x78 x152))) (= x78 x71)) (and (or (or (or (or (= x154 x12) (= x154 x64)) (= x152 x154)) (= x154 x134)) (= x71 x154)) (or (= x71 x14) (or (or (= x14 x152) (or (= x12 x14) (= x14 x64))) (= x134 x14)))))))) (and (and (and (and (or (or (= x134 x143) (or (= x152 x143) (or (= x143 x64) (= x12 x143)))) (= x143 x71)) (or (or (= x134 x69) (or (= x69 x152) (or (= x69 x64) (= x69 x12)))) (= x71 x69))) (or (= x97 x71) (or (= x97 x134) (or (or (= x97 x12) (= x64 x97)) (= x152 x97))))) (or (= x115 x71) (or (or (or (= x115 x12) (= x115 x64)) (= x152 x115)) (= x115 x134)))) (or (= x119 x71) (or (or (= x152 x119) (or (= x119 x64) (= x12 x119))) (= x134 x119))))) (and (and (and (or (or (or (= x152 x120) (or (= x12 x120) (= x64 x120))) (= x134 x120)) (= x71 x120)) (and (or (or (= x134 x39) (or (= x39 x152) (or (= x39 x64) (= x39 x12)))) (= x71 x39)) (or (or (= x134 x11) (or (or (= x11 x64) (= x12 x11)) (= x152 x11))) (= x71 x11)))) (or (= x75 x71) (or (= x134 x75) (or (= x75 x152) (or (= x12 x75) (= x64 x75)))))) (or (= x27 x71) (or (or (or (= x12 x27) (= x27 x64)) (= x27 x152)) (= x134 x27)))))))
(assert (or (and (and (not (= (x25 x134 (x25 x71 x134)) x71)) (and (and (not (= (x25 x64 (x25 x71 x64)) x71)) (not (= (x25 x12 (x25 x71 x12)) x71))) (not (= x71 (x25 x152 (x25 x71 x152)))))) (not (= x71 (x25 x71 (x25 x71 x71))))) (or (or (and (not (= x152 (x25 x71 (x25 x152 x71)))) (and (not (= x152 (x25 x134 (x25 x152 x134)))) (and (not (= x152 (x25 x152 (x25 x152 x152)))) (and (not (= (x25 x12 (x25 x152 x12)) x152)) (not (= x152 (x25 x64 (x25 x152 x64)))))))) (or (and (and (and (and (not (= x12 (x25 x12 (x25 x12 x12)))) (not (= (x25 x64 (x25 x12 x64)) x12))) (not (= (x25 x152 (x25 x12 x152)) x12))) (not (= (x25 x134 (x25 x12 x134)) x12))) (not (= (x25 x71 (x25 x12 x71)) x12))) (and (not (= (x25 x71 (x25 x64 x71)) x64)) (and (not (= x64 (x25 x134 (x25 x64 x134)))) (and (and (not (= (x25 x12 (x25 x64 x12)) x64)) (not (= x64 (x25 x64 (x25 x64 x64))))) (not (= (x25 x152 (x25 x64 x152)) x64))))))) (and (not (= (x25 x71 (x25 x134 x71)) x134)) (and (and (not (= x134 (x25 x152 (x25 x134 x152)))) (and (not (= (x25 x12 (x25 x134 x12)) x134)) (not (= (x25 x64 (x25 x134 x64)) x134)))) (not (= x134 (x25 x134 (x25 x134 x134)))))))))
(assert (let ((x61 (x25 x152 x64)) (x126 (x25 x71 x64)) (x90 (x25 x12 x12)) (x10 (x25 x134 x152)) (x122 (x25 x134 x12)) (x39 (x25 x64 x71)) (x1 (x25 x71 x152)) (x119 (x25 x71 x134)) (x75 (x25 x134 x71)) (x98 (x25 x12 x64)) (x97 (x25 x152 x134)) (x143 (x25 x12 x134)) (x120 (x25 x152 x71)) (x26 (x25 x152 x12)) (x154 (x25 x12 x152)) (x27 (x25 x71 x71)) (x114 (x25 x64 x12)) (x14 (x25 x64 x152)) (x69 (x25 x64 x134)) (x78 (x25 x152 x152)) (x40 (x25 x71 x12)) (x77 (x25 x64 x64)) (x11 (x25 x12 x71)) (x115 (x25 x134 x134)) (x84 (x25 x134 x64))) (and (and (and (and (and (and (not (= x11 x27)) (and (and (and (not (= x39 x27)) (and (not (= x39 x75)) (and (not (= x39 x11)) (not (= x39 x120))))) (not (= x120 x11))) (not (= x75 x11)))) (not (= x75 x120))) (not (= x120 x27))) (not (= x27 x75))) (and (and (and (not (= x97 x119)) (and (and (and (and (and (and (not (= x69 x115)) (and (not (= x69 x97)) (not (= x69 x143)))) (not (= x69 x119))) (not (= x97 x143))) (not (= x115 x143))) (not (= x143 x119))) (not (= x97 x115)))) (not (= x119 x115))) (and (and (and (not (= x122 x40)) (and (not (= x40 x26)) (and (not (= x26 x122)) (and (and (not (= x122 x90)) (and (not (= x26 x90)) (and (and (and (not (= x26 x114)) (not (= x114 x90))) (not (= x114 x122))) (not (= x40 x114))))) (not (= x90 x40)))))) (and (and (not (= x61 x126)) (and (not (= x61 x84)) (and (not (= x98 x126)) (and (and (and (not (= x77 x126)) (and (and (not (= x77 x98)) (not (= x61 x77))) (not (= x84 x77)))) (not (= x61 x98))) (not (= x98 x84)))))) (not (= x84 x126)))) (and (not (= x10 x1)) (and (not (= x1 x78)) (and (not (= x10 x78)) (and (not (= x154 x1)) (and (not (= x10 x154)) (and (and (and (not (= x14 x10)) (and (not (= x14 x154)) (not (= x14 x78)))) (not (= x14 x1))) (not (= x78 x154))))))))))) (and (and (not (= x27 x119)) (and (and (not (= x1 x119)) (and (and (not (= x119 x40)) (and (and (not (= x27 x126)) (and (not (= x126 x119)) (and (not (= x126 x40)) (not (= x126 x1))))) (not (= x1 x40)))) (not (= x40 x27)))) (not (= x1 x27)))) (and (and (and (not (= x75 x10)) (and (not (= x10 x115)) (and (and (and (not (= x10 x122)) (and (not (= x84 x75)) (and (not (= x115 x84)) (and (not (= x84 x10)) (not (= x122 x84)))))) (not (= x115 x122))) (not (= x122 x75))))) (not (= x115 x75))) (and (and (not (= x120 x97)) (and (not (= x120 x78)) (and (not (= x78 x97)) (and (not (= x26 x120)) (and (and (and (not (= x120 x61)) (and (not (= x97 x61)) (and (not (= x78 x61)) (not (= x26 x61))))) (not (= x26 x78))) (not (= x26 x97))))))) (and (and (not (= x39 x69)) (and (and (and (not (= x39 x114)) (and (not (= x69 x114)) (and (and (and (and (not (= x114 x77)) (not (= x77 x14))) (not (= x77 x69))) (not (= x39 x77))) (not (= x114 x14))))) (not (= x69 x14))) (not (= x14 x39)))) (and (not (= x11 x143)) (and (not (= x11 x154)) (and (not (= x154 x143)) (and (and (not (= x143 x90)) (and (and (and (not (= x143 x98)) (and (not (= x98 x90)) (not (= x98 x154)))) (not (= x11 x98))) (not (= x154 x90)))) (not (= x11 x90)))))))))))))
(assert (or (or (and (and (and (and (not (= (x25 (x25 x12 x134) x134) x12)) (not (= (x25 (x25 x64 x134) x134) x64))) (not (= (x25 (x25 x152 x134) x134) x152))) (not (= (x25 (x25 x134 x134) x134) x134))) (not (= x71 (x25 (x25 x71 x134) x134)))) (or (or (and (not (= (x25 (x25 x71 x64) x64) x71)) (and (not (= x134 (x25 (x25 x134 x64) x64))) (and (and (not (= (x25 (x25 x12 x64) x64) x12)) (not (= x64 (x25 (x25 x64 x64) x64)))) (not (= x152 (x25 (x25 x152 x64) x64)))))) (and (not (= x71 (x25 (x25 x71 x12) x12))) (and (not (= (x25 (x25 x134 x12) x12) x134)) (and (and (not (= x64 (x25 (x25 x64 x12) x12))) (not (= (x25 (x25 x12 x12) x12) x12))) (not (= x152 (x25 (x25 x152 x12) x12))))))) (and (not (= x71 (x25 (x25 x71 x152) x152))) (and (and (not (= (x25 (x25 x152 x152) x152) x152)) (and (not (= x12 (x25 (x25 x12 x152) x152))) (not (= x64 (x25 (x25 x64 x152) x152))))) (not (= x134 (x25 (x25 x134 x152) x152))))))) (and (and (and (not (= (x25 (x25 x152 x71) x71) x152)) (and (not (= (x25 (x25 x64 x71) x71) x64)) (not (= (x25 (x25 x12 x71) x71) x12)))) (not (= x134 (x25 (x25 x134 x71) x71)))) (not (= x71 (x25 (x25 x71 x71) x71))))))
(assert (and (and (or (= x71 (x25 x134 (x25 x134 x71))) (or (or (or (= (x25 x134 (x25 x134 x12)) x12) (= x64 (x25 x134 (x25 x134 x64)))) (= (x25 x134 (x25 x134 x152)) x152)) (= (x25 x134 (x25 x134 x134)) x134))) (and (and (or (or (or (= x152 (x25 x64 (x25 x64 x152))) (or (= x64 (x25 x64 (x25 x64 x64))) (= x12 (x25 x64 (x25 x64 x12))))) (= (x25 x64 (x25 x64 x134)) x134)) (= x71 (x25 x64 (x25 x64 x71)))) (or (= (x25 x12 (x25 x12 x71)) x71) (or (or (= x152 (x25 x12 (x25 x12 x152))) (or (= (x25 x12 (x25 x12 x64)) x64) (= x12 (x25 x12 (x25 x12 x12))))) (= x134 (x25 x12 (x25 x12 x134)))))) (or (= x71 (x25 x152 (x25 x152 x71))) (or (= x134 (x25 x152 (x25 x152 x134))) (or (or (= x12 (x25 x152 (x25 x152 x12))) (= (x25 x152 (x25 x152 x64)) x64)) (= x152 (x25 x152 (x25 x152 x152)))))))) (or (= x71 (x25 x71 (x25 x71 x71))) (or (or (= x152 (x25 x71 (x25 x71 x152))) (or (= x64 (x25 x71 (x25 x71 x64))) (= x12 (x25 x71 (x25 x71 x12))))) (= x134 (x25 x71 (x25 x71 x134)))))))
(assert (not (and (and (and (= x12 (x25 x71 x152)) (and (= (x25 x71 x12) x152) (and (= x134 (x25 x71 x64)) (and (and (= (x25 x134 x134) x12) (and (and (= x134 (x25 x134 x12)) (and (and (and (and (and (and (and (= x134 (x25 x12 x71)) (and (= x64 (x25 x12 x134)) (and (and (= (x25 x12 x12) x12) (and (= x71 (x25 x12 x64)) (and (and (= (x25 x64 x134) x134) (and (= (x25 x64 x152) x64) (and (= (x25 x64 x64) x152) (= x71 (x25 x64 x12))))) (= (x25 x64 x71) x12)))) (= (x25 x12 x152) x152)))) (= x12 (x25 x152 x64))) (= (x25 x152 x12) x64)) (= (x25 x152 x152) x134)) (= (x25 x152 x134) x152)) (= (x25 x152 x71) x71)) (= (x25 x134 x64) x64))) (= x71 (x25 x134 x152)))) (= (x25 x134 x71) x152))))) (= x71 (x25 x71 x134))) (= x64 (x25 x71 x71)))))
(assert (let ((x144 (x25 x71 x64)) (x130 (x25 x12 x64)) (x82 (x25 x71 x152)) (x89 (x25 x152 x71)) (x127 (x25 x152 x152)) (x74 (x25 x64 x134)) (x55 (x25 x152 x12)) (x131 (x25 x64 x64)) (x50 (x25 x64 x152)) (x70 (x25 x12 x134)) (x138 (x25 x134 x134)) (x6 (x25 x12 x71)) (x81 (x25 x152 x64)) (x106 (x25 x12 x152)) (x142 (x25 x64 x71)) (x158 (x25 x64 x12)) (x100 (x25 x134 x64)) (x18 (x25 x71 x134)) (x141 (x25 x152 x134)) (x42 (x25 x134 x12)) (x137 (x25 x12 x12)) (x72 (x25 x71 x12)) (x83 (x25 x134 x71)) (x80 (x25 x134 x152)) (x94 (x25 x71 x71))) (let ((x23 (= x137 x152)) (x53 (= x131 x71)) (x115 (= x72 x64)) (x149 (= x152 x55)) (x95 (= x80 x71)) (x37 (= x42 x71)) (x41 (= x158 x71)) (x146 (= x71 x144)) (x3 (= x152 x142)) (x151 (= x50 x152)) (x57 (= x158 x152)) (x157 (= x12 x94)) (x145 (= x127 x12)) (x59 (= x137 x12)) (x150 (= x138 x152)) (x38 (= x134 x127)) (x90 (= x55 x64)) (x133 (= x106 x71)) (x110 (= x100 x134)) (x156 (= x71 x50)) (x113 (= x6 x71)) (x116 (= x12 x42)) (x139 (= x134 x89)) (x4 (= x42 x152)) (x96 (= x71 x94)) (x111 (= x134 x141)) (x73 (= x138 x71)) (x122 (= x64 x127)) (x93 (= x72 x152)) (x24 (= x72 x71)) (x62 (= x18 x134)) (x91 (= x152 x144)) (x40 (= x100 x64)) (x148 (= x130 x152)) (x63 (= x12 x144)) (x19 (= x141 x12)) (x58 (= x134 x6)) (x120 (= x18 x64)) (x132 (= x134 x144)) (x56 (= x82 x152)) (x67 (= x71 x130)) (x92 (= x71 x127)) (x44 (= x152 x80)) (x43 (= x152 x94)) (x29 (= x100 x71)) (x98 (= x130 x64)) (x54 (= x12 x74)) (x49 (= x83 x71)) (x123 (= x142 x71)) (x60 (= x70 x12)) (x87 (= x152 x127)) (x121 (= x106 x152)) (x136 (= x12 x81)) (x8 (= x74 x134)) (x88 (= x12 x89)) (x97 (= x142 x64)) (x125 (= x12 x80)) (x76 (= x152 x83)) (x9 (= x134 x50)) (x153 (= x152 x131)) (x102 (= x152 x6)) (x30 (= x12 x55)) (x124 (= x70 x134)) (x126 (= x64 x81)) (x114 (= x64 x50)) (x154 (= x42 x64)) (x109 (= x134 x106)) (x22 (= x18 x71)) (x143 (= x64 x144)) (x118 (= x134 x138)) (x112 (= x83 x12)) (x107 (= x71 x82)) (x2 (= x74 x71)) (x78 (= x70 x64)) (x147 (= x12 x142)) (x68 (= x70 x152)) (x16 (= x50 x12)) (x65 (= x134 x82)) (x105 (= x141 x152)) (x129 (= x82 x12)) (x61 (= x158 x64)) (x17 (= x106 x12)) (x11 (= x64 x89)) (x119 (= x6 x64)) (x13 (= x12 x6)) (x84 (= x137 x64)) (x86 (= x89 x152)) (x27 (= x64 x94)) (x77 (= x131 x64)) (x34 (= x81 x71)) (x135 (= x134 x158)) (x52 (= x137 x134)) (x159 (= x134 x142)) (x21 (= x83 x134)) (x99 (= x134 x130)) (x26 (= x64 x106)) (x47 (= x12 x130)) (x33 (= x18 x12)) (x108 (= x71 x70)) (x103 (= x81 x152)) (x32 (= x131 x12)) (x79 (= x71 x137)) (x75 (= x64 x83)) (x128 (= x71 x89)) (x1 (= x64 x141)) (x7 (= x138 x12)) (x39 (= x64 x82)) (x28 (= x134 x80)) (x45 (= x12 x158)) (x48 (= x100 x152)) (x15 (= x71 x141)) (x35 (= x134 x94)) (x20 (= x131 x134)) (x140 (= x134 x55)) (x5 (= x55 x71)) (x14 (= x74 x64)) (x69 (= x64 x138)) (x101 (= x152 x74)) (x10 (= x80 x64)) (x36 (= x12 x72)) (x117 (= x81 x134)) (x51 (= x12 x100)) (x85 (= x152 x18)) (x46 (= x42 x134)) (x155 (= x72 x134))) (and (and (or (or (and x35 x35) (or (or (or (and x155 x58) (and x132 x159)) (and x65 x139)) (and x62 x21))) (or (or (or (or (or (or (and x109 x140) (or (and x135 x99) (and x52 x52))) (and x46 x124)) (and x58 x155)) (or (or (or (or (and x20 x20) (and x99 x135)) (and x9 x117)) (and x110 x8)) (and x132 x159))) (or (or (or (and x38 x38) (or (and x9 x117) (and x109 x140))) (and x111 x28)) (and x65 x139))) (or (and x62 x21) (or (and x118 x118) (or (or (and x124 x46) (and x110 x8)) (and x28 x111)))))) (and (and (or (or (or (or (or (or (and x51 x54) (and x116 x60)) (and x125 x19)) (and x7 x7)) (and x33 x112)) (or (or (or (or (or (and x17 x30) (or (and x59 x59) (and x45 x47))) (and x116 x60)) (and x13 x36)) (or (or (or (or (and x47 x45) (and x32 x32)) (and x136 x16)) (and x54 x51)) (and x63 x147))) (or (or (and x125 x19) (or (or (and x136 x16) (and x17 x30)) (and x145 x145))) (and x88 x129)))) (or (and x157 x157) (or (and x33 x112) (or (or (and x36 x13) (and x63 x147)) (and x88 x129))))) (or (or (and x27 x27) (or (and x120 x75) (or (or (and x97 x143) (and x119 x115)) (and x11 x39)))) (or (or (and x120 x75) (or (and x69 x69) (or (and x10 x1) (or (and x154 x78) (and x14 x40))))) (or (or (or (and x97 x143) (or (or (and x114 x126) (or (and x98 x61) (and x77 x77))) (and x40 x14))) (or (and x119 x115) (or (and x78 x154) (or (or (and x98 x61) (and x84 x84)) (and x90 x26))))) (or (or (or (and x122 x122) (or (and x114 x126) (and x90 x26))) (and x1 x10)) (and x11 x39)))))) (or (or (or (and x85 x76) (or (and x150 x150) (or (or (and x4 x68) (and x101 x48)) (and x44 x105)))) (or (or (or (or (or (or (and x57 x148) (and x153 x153)) (and x151 x103)) (and x101 x48)) (and x91 x3)) (or (and x102 x93) (or (and x68 x4) (or (and x121 x149) (or (and x23 x23) (and x57 x148)))))) (or (and x86 x56) (or (or (or (and x121 x149) (and x103 x151)) (and x87 x87)) (and x105 x44))))) (or (and x43 x43) (or (or (or (and x3 x91) (and x93 x102)) (and x86 x56)) (and x85 x76)))))) (or (or (or (or (or (or (or (or (and x67 x41) (and x79 x79)) (and x5 x133)) (and x108 x37)) (and x24 x113)) (or (and x123 x146) (or (and x29 x2) (or (or (and x67 x41) (and x53 x53)) (and x156 x34))))) (or (and x107 x128) (or (and x15 x95) (or (or (and x156 x34) (and x5 x133)) (and x92 x92))))) (or (or (or (and x15 x95) (or (and x2 x29) (and x37 x108))) (and x73 x73)) (and x22 x49))) (or (and x96 x96) (or (and x22 x49) (or (or (and x146 x123) (and x113 x24)) (and x128 x107)))))))))
(assert (or (or (= x134 (x25 x134 x134)) (or (or (= x64 (x25 x64 x64)) (= (x25 x12 x12) x12)) (= x152 (x25 x152 x152)))) (= x71 (x25 x71 x71))))
(assert (let ((x114 (x25 x12 x152)) (x10 (x25 x134 x12)) (x26 (x25 x152 x12)) (x97 (x25 x12 x71)) (x40 (x25 x64 x134)) (x75 (x25 x71 x134)) (x27 (not (= x71 (x25 x71 x71)))) (x61 (x25 x12 x64)) (x154 (x25 x152 x134)) (x1 (x25 x134 x152)) (x122 (not (= x152 (x25 x152 x152)))) (x78 (x25 x134 x64)) (x69 (not (= x134 (x25 x134 x134)))) (x11 (x25 x71 x12)) (x119 (x25 x134 x71)) (x143 (x25 x64 x71)) (x126 (x25 x64 x152)) (x98 (x25 x64 x12)) (x120 (x25 x71 x152)) (x90 (x25 x152 x64)) (x84 (not (= (x25 x12 x12) x12))) (x115 (x25 x152 x71)) (x14 (x25 x12 x134)) (x39 (x25 x71 x64)) (x77 (not (= (x25 x64 x64) x64)))) (or (and (and (and (not (= x134 x75)) (and (not (= x152 x120)) (and (not (= x11 x12)) (not (= x64 x39))))) x27) (and x27 (and (and (and (not (= x143 x64)) (not (= x12 x97))) (not (= x115 x152))) (not (= x119 x134))))) (or (and (and (not (= x119 x71)) (and x69 (and (not (= x152 x1)) (and (not (= x78 x64)) (not (= x12 x10)))))) (and (and x69 (and (and (not (= x12 x14)) (not (= x40 x64))) (not (= x154 x152)))) (not (= x71 x75)))) (or (and (and (and (and x122 (and (not (= x90 x64)) (not (= x26 x12)))) (not (= x134 x154))) (not (= x71 x115))) (and (and (not (= x134 x1)) (and x122 (and (not (= x64 x126)) (not (= x12 x114))))) (not (= x120 x71)))) (or (and (and (not (= x71 x39)) (and (not (= x78 x134)) (and (and (not (= x61 x12)) x77) (not (= x90 x152))))) (and (and (not (= x134 x40)) (and (and (not (= x12 x98)) x77) (not (= x126 x152)))) (not (= x71 x143)))) (and (and (not (= x71 x97)) (and (and (not (= x114 x152)) (and x84 (not (= x61 x64)))) (not (= x14 x134)))) (and (not (= x71 x11)) (and (not (= x10 x134)) (and (not (= x152 x26)) (and x84 (not (= x98 x64)))))))))))))
(assert (and (and (and (= x12 (x25 x152 x64)) (= (x25 x64 x64) x152)) (= (x25 x152 x152) x134)) (= x71 (x25 x134 x152))))
(assert (and (not (= x134 x71)) (and (and (not (= x152 x134)) (and (not (= x71 x12)) (and (and (and (and (and (not (= x64 x152)) (not (= x12 x64))) (not (= x64 x134))) (not (= x71 x64))) (not (= x12 x152))) (not (= x134 x12))))) (not (= x152 x71)))))
(assert (let ((x11 (x25 x12 x71)) (x32 (x25 x71 x12)) (x121 (x25 x71 x134)) (x159 (x25 x71 x71)) (x126 (x25 x64 x134)) (x114 (x25 x64 x71)) (x6 (x25 x152 x152)) (x122 (x25 x152 x64)) (x61 (x25 x64 x12)) (x119 (x25 x12 x152)) (x98 (x25 x64 x64)) (x39 (x25 x12 x134)) (x84 (x25 x64 x152)) (x40 (x25 x134 x64)) (x148 (x25 x134 x134)) (x57 (x25 x134 x71)) (x127 (x25 x134 x152)) (x145 (x25 x71 x152)) (x136 (x25 x152 x71)) (x26 (x25 x12 x64)) (x14 (x25 x71 x64)) (x131 (x25 x134 x12)) (x115 (x25 x12 x12)) (x72 (x25 x152 x134)) (x27 (x25 x152 x12))) (let ((x100 (= x134 x115)) (x135 (= x71 x72)) (x19 (= x134 x6)) (x144 (= x71 x61)) (x69 (= x61 x64)) (x146 (= x14 x71)) (x79 (= x11 x152)) (x106 (= x64 x119)) (x141 (= x122 x152)) (x36 (= x131 x64)) (x108 (= x11 x134)) (x62 (= x12 x159)) (x46 (= x64 x57)) (x34 (= x136 x152)) (x94 (= x40 x12)) (x125 (= x134 x119)) (x56 (= x134 x72)) (x29 (= x134 x145)) (x52 (= x71 x148)) (x156 (= x152 x57)) (x149 (= x12 x148)) (x17 (= x12 x6)) (x99 (= x71 x39)) (x95 (= x134 x136)) (x30 (= x119 x12)) (x151 (= x72 x12)) (x132 (= x12 x121)) (x58 (= x12 x11)) (x68 (= x39 x152)) (x75 (= x115 x12)) (x129 (= x126 x64)) (x8 (= x136 x64)) (x50 (= x152 x115)) (x102 (= x39 x134)) (x91 (= x131 x134)) (x37 (= x114 x134)) (x7 (= x27 x71)) (x13 (= x64 x127)) (x59 (= x84 x64)) (x118 (= x12 x145)) (x33 (= x72 x64)) (x139 (= x57 x12)) (x77 (= x64 x98)) (x111 (= x32 x12)) (x49 (= x57 x71)) (x155 (= x114 x12)) (x124 (= x64 x159)) (x45 (= x64 x122)) (x116 (= x134 x27)) (x123 (= x32 x71)) (x18 (= x119 x71)) (x65 (= x12 x136)) (x89 (= x152 x84)) (x63 (= x6 x71)) (x101 (= x152 x127)) (x105 (= x148 x152)) (x86 (= x134 x148)) (x1 (= x26 x64)) (x93 (= x134 x126)) (x44 (= x72 x152)) (x143 (= x115 x64)) (x140 (= x145 x64)) (x82 (= x119 x152)) (x28 (= x14 x12)) (x137 (= x27 x64)) (x130 (= x61 x152)) (x112 (= x64 x148)) (x48 (= x131 x152)) (x154 (= x98 x152)) (x128 (= x11 x71)) (x83 (= x84 x71)) (x73 (= x134 x159)) (x78 (= x134 x98)) (x4 (= x126 x152)) (x117 (= x64 x14)) (x150 (= x40 x134)) (x35 (= x152 x32)) (x109 (= x121 x64)) (x120 (= x12 x61)) (x88 (= x64 x39)) (x157 (= x131 x12)) (x3 (= x134 x127)) (x158 (= x152 x26)) (x87 (= x152 x40)) (x92 (= x32 x134)) (x43 (= x127 x71)) (x10 (= x71 x98)) (x9 (= x64 x32)) (x85 (= x71 x40)) (x67 (= x121 x152)) (x22 (= x71 x136)) (x133 (= x134 x14)) (x42 (= x12 x27)) (x41 (= x152 x114)) (x70 (= x122 x12)) (x55 (= x6 x64)) (x107 (= x114 x71)) (x16 (= x84 x12)) (x54 (= x122 x134)) (x90 (= x12 x98)) (x110 (= x11 x64)) (x60 (= x84 x134)) (x142 (= x71 x26)) (x38 (= x64 x114)) (x51 (= x6 x152)) (x76 (= x71 x131)) (x153 (= x12 x127)) (x23 (= x126 x12)) (x2 (= x121 x134)) (x96 (= x71 x159)) (x113 (= x71 x121)) (x5 (= x159 x152)) (x81 (= x134 x26)) (x21 (= x152 x14)) (x53 (= x152 x145)) (x15 (= x134 x57)) (x97 (= x12 x26)) (x80 (= x27 x152)) (x47 (= x115 x71)) (x24 (= x71 x145)) (x138 (= x122 x71)) (x147 (= x64 x40)) (x20 (= x126 x71)) (x103 (= x39 x12)) (x74 (= x61 x134))) (and (and (and (and (and (and (and (or (or (or x54 (or x81 x78)) x150) x133) (or (or (or x60 (or x74 x78)) x93) x37)) (and (and (or (or x4 (or (or x130 x154) x89)) x41) (or (or x87 (or (or x154 x158) x141)) x21)) (and (and (or x155 (or x23 (or (or x90 x120) x16))) (or (or (or (or x90 x97) x70) x94) x28)) (and (or (or x147 (or x45 (or x1 x77))) x117) (or (or x129 (or (or x69 x77) x59)) x38))))) (and (or (or (or x83 (or x10 x144)) x20) x107) (or (or x85 (or (or x142 x10) x138)) x146))) (and (and (or (or x99 (or x18 (or x47 x142))) x128) (or (or (or (or x144 x47) x7) x76) x123)) (and (and (and (or (or x48 (or (or x50 x130) x80)) x35) (or (or (or (or x50 x158) x82) x68) x79)) (and (and (or (or (or x137 (or x69 x143)) x36) x9) (or (or (or x106 (or x1 x143)) x88) x110)) (and (or x58 (or x103 (or x30 (or x75 x97)))) (or x111 (or (or x42 (or x75 x120)) x157))))) (and (or x108 (or x102 (or (or x81 x100) x125))) (or x92 (or (or (or x100 x74) x116) x91)))))) (and (and (or (or (or x63 (or x18 x83)) x43) x24) (or (or x135 (or (or x7 x138) x63)) x22)) (and (and (and (and (or (or x153 (or (or x16 x30) x17)) x118) (or (or (or x17 (or x70 x42)) x151) x65)) (and (or x140 (or (or (or x59 x106) x55) x13)) (or (or (or (or x137 x45) x55) x33) x8))) (and (or x34 (or (or (or x80 x141) x51) x44)) (or (or x101 (or (or x89 x82) x51)) x53))) (and (or (or (or (or x60 x125) x19) x3) x29) (or (or (or x19 (or x54 x116)) x56) x95))))) (and (and (or (or (or x43 (or x76 x85)) x52) x49) (or x113 (or x52 (or (or x20 x99) x135)))) (and (and (and (or x156 (or x105 (or x101 (or x48 x87)))) (or (or (or x44 (or x4 x68)) x105) x67)) (and (and (or x139 (or x149 (or (or x94 x157) x153))) (or (or x149 (or x151 (or x103 x23))) x132)) (and (or x46 (or x112 (or x13 (or x147 x36)))) (or x109 (or (or x33 (or x129 x88)) x112))))) (and (or (or (or x3 (or x91 x150)) x86) x15) (or x2 (or x86 (or x56 (or x93 x102)))))))) (and (and (or x96 (or (or (or x128 x107) x22) x49)) (or x96 (or x113 (or (or x146 x123) x24)))) (and (and (or (or (or (or x133 x92) x29) x2) x73) (or x73 (or x15 (or (or x37 x108) x95)))) (and (and (or x5 (or (or (or x79 x41) x34) x156)) (or (or (or (or x35 x21) x53) x67) x5)) (and (and (or x124 (or (or (or x38 x110) x8) x46)) (or x124 (or (or x140 (or x9 x117)) x109))) (and (or (or (or (or x58 x155) x65) x139) x62) (or (or x132 (or x118 (or x28 x111))) x62))))))))))
(check-sat)
(exit)
